NAME          COPTPROB
OBJSENSE
  MIN
ROWS
 N  __OBJ___
 L  C29     
 L  C71     
 L  C94     
 L  C102    
 L  C141    
COLUMNS
    MARKER    'MARKER'                 'INTORG'
    x197      __OBJ___  129
    x197      C94       -1
    x197      C102      -1
    x418      __OBJ___  48
    x418      C29       -1
    x1162     __OBJ___  122
    x1162     C94       -1
    x1179     __OBJ___  168
    x1179     C29       -1
    x1179     C94       -1
    x1549     __OBJ___  87
    x1549     C71       -1
    x1549     C141      -1
    x1731     __OBJ___  57
    x1731     C141      -1
    x2419     __OBJ___  68
    x2419     C102      -1
    x2419     C141      -1
    x2499     __OBJ___  24
    x2499     C102      -1
    x2811     __OBJ___  57
    x2811     C29       -1
    x2811     C71       -1
    MARKER    'MARKER'                 'INTEND'
RHS
    RHS       __OBJ___  -4896
    RHS       C29       -1
    RHS       C71       -1
    RHS       C94       -1
    RHS       C102      -1
    RHS       C141      -1
BOUNDS
 UP BOUND     x197      1
 UP BOUND     x418      1
 UP BOUND     x1162     1
 UP BOUND     x1179     1
 UP BOUND     x1549     1
 UP BOUND     x1731     1
 UP BOUND     x2419     1
 UP BOUND     x2499     1
 UP BOUND     x2811     1
ENDATA
